data/lp_files/pEFS/105_0.lp
\ Model foo
\ LP format - for model browsing. Use MPS format to capture full model detail.
Minimize
  z
Subject To
 allocateEach[1]: x[1,1] + x[2,1] + x[3,1] + x[4,1] + x[5,1] + x[6,1] = 1
 allocateEach[2]: x[1,2] + x[2,2] + x[3,2] + x[4,2] + x[5,2] + x[6,2] = 1
 allocateEach[3]: x[1,3] + x[2,3] + x[3,3] + x[4,3] + x[5,3] + x[6,3] = 1
 allocateEach[4]: x[1,4] + x[2,4] + x[3,4] + x[4,4] + x[5,4] + x[6,4] = 1
 allocateEach[5]: x[1,5] + x[2,5] + x[3,5] + x[4,5] + x[5,5] + x[6,5] = 1
 allocateAllCash: cashProportion[1] + cashProportion[2] + cashProportion[3]
   + cashProportion[4] + cashProportion[5] + cashProportion[6] = 1
 findWorstP[1,2]: z + 0.0314564328405159 cashProportion[1]
   - 0.0314564328405159 cashProportion[2] + 0.0156653035545769 x[1,1]
   + 0.3120478137779176 x[1,2] + 0.0780748663101604 x[1,3]
   + 0.2250393205410507 x[1,4] + 0.3377162629757786 x[1,5]
   - 0.0156653035545769 x[2,1] - 0.3120478137779176 x[2,2]
   - 0.0780748663101604 x[2,3] - 0.2250393205410507 x[2,4]
   - 0.3377162629757786 x[2,5] >= 0
 findWorstP[1,3]: z + 0.0314564328405159 cashProportion[1]
   - 0.0314564328405159 cashProportion[3] + 0.0156653035545769 x[1,1]
   + 0.3120478137779176 x[1,2] + 0.0780748663101604 x[1,3]
   + 0.2250393205410507 x[1,4] + 0.3377162629757786 x[1,5]
   - 0.0156653035545769 x[3,1] - 0.3120478137779176 x[3,2]
   - 0.0780748663101604 x[3,3] - 0.2250393205410507 x[3,4]
   - 0.3377162629757786 x[3,5] >= 0
 findWorstP[1,4]: z + 0.0314564328405159 cashProportion[1]
   - 0.0314564328405159 cashProportion[4] + 0.0156653035545769 x[1,1]
   + 0.3120478137779176 x[1,2] + 0.0780748663101604 x[1,3]
   + 0.2250393205410507 x[1,4] + 0.3377162629757786 x[1,5]
   - 0.0156653035545769 x[4,1] - 0.3120478137779176 x[4,2]
   - 0.0780748663101604 x[4,3] - 0.2250393205410507 x[4,4]
   - 0.3377162629757786 x[4,5] >= 0
 findWorstP[1,5]: z + 0.0314564328405159 cashProportion[1]
   - 0.0314564328405159 cashProportion[5] + 0.0156653035545769 x[1,1]
   + 0.3120478137779176 x[1,2] + 0.0780748663101604 x[1,3]
   + 0.2250393205410507 x[1,4] + 0.3377162629757786 x[1,5]
   - 0.0156653035545769 x[5,1] - 0.3120478137779176 x[5,2]
   - 0.0780748663101604 x[5,3] - 0.2250393205410507 x[5,4]
   - 0.3377162629757786 x[5,5] >= 0
 findWorstP[1,6]: z + 0.0314564328405159 cashProportion[1]
   - 0.0314564328405159 cashProportion[6] + 0.0156653035545769 x[1,1]
   + 0.3120478137779176 x[1,2] + 0.0780748663101604 x[1,3]
   + 0.2250393205410507 x[1,4] + 0.3377162629757786 x[1,5]
   - 0.0156653035545769 x[6,1] - 0.3120478137779176 x[6,2]
   - 0.0780748663101604 x[6,3] - 0.2250393205410507 x[6,4]
   - 0.3377162629757786 x[6,5] >= 0
 findWorstP[2,1]: z - 0.0199816169124406 cashProportion[1]
   + 0.0199816169124406 cashProportion[2] - 0.0929944451104983 x[1,1]
   - 0.3413659433321344 x[1,2] - 0.026895256364145 x[1,3]
   - 0.2674339607561044 x[1,4] - 0.2513287775246773 x[1,5]
   + 0.0929944451104983 x[2,1] + 0.3413659433321344 x[2,2]
   + 0.026895256364145 x[2,3] + 0.2674339607561044 x[2,4]
   + 0.2513287775246773 x[2,5] >= 0
 findWorstP[2,3]: z + 0.0199816169124406 cashProportion[2]
   - 0.0199816169124406 cashProportion[3] + 0.0929944451104983 x[2,1]
   + 0.3413659433321344 x[2,2] + 0.026895256364145 x[2,3]
   + 0.2674339607561044 x[2,4] + 0.2513287775246773 x[2,5]
   - 0.0929944451104983 x[3,1] - 0.3413659433321344 x[3,2]
   - 0.026895256364145 x[3,3] - 0.2674339607561044 x[3,4]
   - 0.2513287775246773 x[3,5] >= 0
 findWorstP[2,4]: z + 0.0199816169124406 cashProportion[2]
   - 0.0199816169124406 cashProportion[4] + 0.0929944451104983 x[2,1]
   + 0.3413659433321344 x[2,2] + 0.026895256364145 x[2,3]
   + 0.2674339607561044 x[2,4] + 0.2513287775246773 x[2,5]
   - 0.0929944451104983 x[4,1] - 0.3413659433321344 x[4,2]
   - 0.026895256364145 x[4,3] - 0.2674339607561044 x[4,4]
   - 0.2513287775246773 x[4,5] >= 0
 findWorstP[2,5]: z + 0.0199816169124406 cashProportion[2]
   - 0.0199816169124406 cashProportion[5] + 0.0929944451104983 x[2,1]
   + 0.3413659433321344 x[2,2] + 0.026895256364145 x[2,3]
   + 0.2674339607561044 x[2,4] + 0.2513287775246773 x[2,5]
   - 0.0929944451104983 x[5,1] - 0.3413659433321344 x[5,2]
   - 0.026895256364145 x[5,3] - 0.2674339607561044 x[5,4]
   - 0.2513287775246773 x[5,5] >= 0
 findWorstP[2,6]: z + 0.0199816169124406 cashProportion[2]
   - 0.0199816169124406 cashProportion[6] + 0.0929944451104983 x[2,1]
   + 0.3413659433321344 x[2,2] + 0.026895256364145 x[2,3]
   + 0.2674339607561044 x[2,4] + 0.2513287775246773 x[2,5]
   - 0.0929944451104983 x[6,1] - 0.3413659433321344 x[6,2]
   - 0.026895256364145 x[6,3] - 0.2674339607561044 x[6,4]
   - 0.2513287775246773 x[6,5] >= 0
 findWorstP[3,1]: z - 0.0188281367675855 cashProportion[1]
   + 0.0188281367675855 cashProportion[3] - 0.1438469649043531 x[1,1]
   - 0.2178038861274288 x[1,2] - 0.26653110408194 x[1,3]
   - 0.3086684741677964 x[1,4] - 0.0443214339508962 x[1,5]
   + 0.1438469649043531 x[3,1] + 0.2178038861274288 x[3,2]
   + 0.26653110408194 x[3,3] + 0.3086684741677964 x[3,4]
   + 0.0443214339508962 x[3,5] >= 0
 findWorstP[3,2]: z - 0.0188281367675855 cashProportion[2]
   + 0.0188281367675855 cashProportion[3] - 0.1438469649043531 x[2,1]
   - 0.2178038861274288 x[2,2] - 0.26653110408194 x[2,3]
   - 0.3086684741677964 x[2,4] - 0.0443214339508962 x[2,5]
   + 0.1438469649043531 x[3,1] + 0.2178038861274288 x[3,2]
   + 0.26653110408194 x[3,3] + 0.3086684741677964 x[3,4]
   + 0.0443214339508962 x[3,5] >= 0
 findWorstP[3,4]: z + 0.0188281367675855 cashProportion[3]
   - 0.0188281367675855 cashProportion[4] + 0.1438469649043531 x[3,1]
   + 0.2178038861274288 x[3,2] + 0.26653110408194 x[3,3]
   + 0.3086684741677964 x[3,4] + 0.0443214339508962 x[3,5]
   - 0.1438469649043531 x[4,1] - 0.2178038861274288 x[4,2]
   - 0.26653110408194 x[4,3] - 0.3086684741677964 x[4,4]
   - 0.0443214339508962 x[4,5] >= 0
 findWorstP[3,5]: z + 0.0188281367675855 cashProportion[3]
   - 0.0188281367675855 cashProportion[5] + 0.1438469649043531 x[3,1]
   + 0.2178038861274288 x[3,2] + 0.26653110408194 x[3,3]
   + 0.3086684741677964 x[3,4] + 0.0443214339508962 x[3,5]
   - 0.1438469649043531 x[5,1] - 0.2178038861274288 x[5,2]
   - 0.26653110408194 x[5,3] - 0.3086684741677964 x[5,4]
   - 0.0443214339508962 x[5,5] >= 0
 findWorstP[3,6]: z + 0.0188281367675855 cashProportion[3]
   - 0.0188281367675855 cashProportion[6] + 0.1438469649043531 x[3,1]
   + 0.2178038861274288 x[3,2] + 0.26653110408194 x[3,3]
   + 0.3086684741677964 x[3,4] + 0.0443214339508962 x[3,5]
   - 0.1438469649043531 x[6,1] - 0.2178038861274288 x[6,2]
   - 0.26653110408194 x[6,3] - 0.3086684741677964 x[6,4]
   - 0.0443214339508962 x[6,5] >= 0
 findWorstP[4,1]: z - 0.0264424348193982 cashProportion[1]
   + 0.0264424348193982 cashProportion[4] - 0.0569041197313449 x[1,1]
   - 0.1725104447617536 x[1,2] - 0.1250198318261145 x[1,3]
   - 0.1376064308001481 x[1,4] - 0.4815167380612407 x[1,5]
   + 0.0569041197313449 x[4,1] + 0.1725104447617536 x[4,2]
   + 0.1250198318261145 x[4,3] + 0.1376064308001481 x[4,4]
   + 0.4815167380612407 x[4,5] >= 0
 findWorstP[4,2]: z - 0.0264424348193982 cashProportion[2]
   + 0.0264424348193982 cashProportion[4] - 0.0569041197313449 x[2,1]
   - 0.1725104447617536 x[2,2] - 0.1250198318261145 x[2,3]
   - 0.1376064308001481 x[2,4] - 0.4815167380612407 x[2,5]
   + 0.0569041197313449 x[4,1] + 0.1725104447617536 x[4,2]
   + 0.1250198318261145 x[4,3] + 0.1376064308001481 x[4,4]
   + 0.4815167380612407 x[4,5] >= 0
 findWorstP[4,3]: z - 0.0264424348193982 cashProportion[3]
   + 0.0264424348193982 cashProportion[4] - 0.0569041197313449 x[3,1]
   - 0.1725104447617536 x[3,2] - 0.1250198318261145 x[3,3]
   - 0.1376064308001481 x[3,4] - 0.4815167380612407 x[3,5]
   + 0.0569041197313449 x[4,1] + 0.1725104447617536 x[4,2]
   + 0.1250198318261145 x[4,3] + 0.1376064308001481 x[4,4]
   + 0.4815167380612407 x[4,5] >= 0
 findWorstP[4,5]: z + 0.0264424348193982 cashProportion[4]
   - 0.0264424348193982 cashProportion[5] + 0.0569041197313449 x[4,1]
   + 0.1725104447617536 x[4,2] + 0.1250198318261145 x[4,3]
   + 0.1376064308001481 x[4,4] + 0.4815167380612407 x[4,5]
   - 0.0569041197313449 x[5,1] - 0.1725104447617536 x[5,2]
   - 0.1250198318261145 x[5,3] - 0.1376064308001481 x[5,4]
   - 0.4815167380612407 x[5,5] >= 0
 findWorstP[4,6]: z + 0.0264424348193982 cashProportion[4]
   - 0.0264424348193982 cashProportion[6] + 0.0569041197313449 x[4,1]
   + 0.1725104447617536 x[4,2] + 0.1250198318261145 x[4,3]
   + 0.1376064308001481 x[4,4] + 0.4815167380612407 x[4,5]
   - 0.0569041197313449 x[6,1] - 0.1725104447617536 x[6,2]
   - 0.1250198318261145 x[6,3] - 0.1376064308001481 x[6,4]
   - 0.4815167380612407 x[6,5] >= 0
 findWorstP[5,1]: z - 0.0135851107186524 cashProportion[1]
   + 0.0135851107186524 cashProportion[5] - 0.2194810487705475 x[1,1]
   - 0.1894579540823258 x[1,2] - 0.2146447493547073 x[1,3]
   - 0.1716342888194539 x[1,4] - 0.1911968482543133 x[1,5]
   + 0.2194810487705475 x[5,1] + 0.1894579540823258 x[5,2]
   + 0.2146447493547073 x[5,3] + 0.1716342888194539 x[5,4]
   + 0.1911968482543133 x[5,5] >= 0
 findWorstP[5,2]: z - 0.0135851107186524 cashProportion[2]
   + 0.0135851107186524 cashProportion[5] - 0.2194810487705475 x[2,1]
   - 0.1894579540823258 x[2,2] - 0.2146447493547073 x[2,3]
   - 0.1716342888194539 x[2,4] - 0.1911968482543133 x[2,5]
   + 0.2194810487705475 x[5,1] + 0.1894579540823258 x[5,2]
   + 0.2146447493547073 x[5,3] + 0.1716342888194539 x[5,4]
   + 0.1911968482543133 x[5,5] >= 0
 findWorstP[5,3]: z - 0.0135851107186524 cashProportion[3]
   + 0.0135851107186524 cashProportion[5] - 0.2194810487705475 x[3,1]
   - 0.1894579540823258 x[3,2] - 0.2146447493547073 x[3,3]
   - 0.1716342888194539 x[3,4] - 0.1911968482543133 x[3,5]
   + 0.2194810487705475 x[5,1] + 0.1894579540823258 x[5,2]
   + 0.2146447493547073 x[5,3] + 0.1716342888194539 x[5,4]
   + 0.1911968482543133 x[5,5] >= 0
 findWorstP[5,4]: z - 0.0135851107186524 cashProportion[4]
   + 0.0135851107186524 cashProportion[5] - 0.2194810487705475 x[4,1]
   - 0.1894579540823258 x[4,2] - 0.2146447493547073 x[4,3]
   - 0.1716342888194539 x[4,4] - 0.1911968482543133 x[4,5]
   + 0.2194810487705475 x[5,1] + 0.1894579540823258 x[5,2]
   + 0.2146447493547073 x[5,3] + 0.1716342888194539 x[5,4]
   + 0.1911968482543133 x[5,5] >= 0
 findWorstP[5,6]: z + 0.0135851107186524 cashProportion[5]
   - 0.0135851107186524 cashProportion[6] + 0.2194810487705475 x[5,1]
   + 0.1894579540823258 x[5,2] + 0.2146447493547073 x[5,3]
   + 0.1716342888194539 x[5,4] + 0.1911968482543133 x[5,5]
   - 0.2194810487705475 x[6,1] - 0.1894579540823258 x[6,2]
   - 0.2146447493547073 x[6,3] - 0.1716342888194539 x[6,4]
   - 0.1911968482543133 x[6,5] >= 0
 findWorstP[6,1]: z - 0.0161618773636746 cashProportion[1]
   + 0.0161618773636746 cashProportion[6] - 0.1387335552897825 x[1,1]
   - 0.197013285063193 x[1,2] - 0.1633965801467498 x[1,3]
   - 0.1980153214597408 x[1,4] - 0.2866793806768594 x[1,5]
   + 0.1387335552897825 x[6,1] + 0.197013285063193 x[6,2]
   + 0.1633965801467498 x[6,3] + 0.1980153214597408 x[6,4]
   + 0.2866793806768594 x[6,5] >= 0
 findWorstP[6,2]: z - 0.0161618773636746 cashProportion[2]
   + 0.0161618773636746 cashProportion[6] - 0.1387335552897825 x[2,1]
   - 0.197013285063193 x[2,2] - 0.1633965801467498 x[2,3]
   - 0.1980153214597408 x[2,4] - 0.2866793806768594 x[2,5]
   + 0.1387335552897825 x[6,1] + 0.197013285063193 x[6,2]
   + 0.1633965801467498 x[6,3] + 0.1980153214597408 x[6,4]
   + 0.2866793806768594 x[6,5] >= 0
 findWorstP[6,3]: z - 0.0161618773636746 cashProportion[3]
   + 0.0161618773636746 cashProportion[6] - 0.1387335552897825 x[3,1]
   - 0.197013285063193 x[3,2] - 0.1633965801467498 x[3,3]
   - 0.1980153214597408 x[3,4] - 0.2866793806768594 x[3,5]
   + 0.1387335552897825 x[6,1] + 0.197013285063193 x[6,2]
   + 0.1633965801467498 x[6,3] + 0.1980153214597408 x[6,4]
   + 0.2866793806768594 x[6,5] >= 0
 findWorstP[6,4]: z - 0.0161618773636746 cashProportion[4]
   + 0.0161618773636746 cashProportion[6] - 0.1387335552897825 x[4,1]
   - 0.197013285063193 x[4,2] - 0.1633965801467498 x[4,3]
   - 0.1980153214597408 x[4,4] - 0.2866793806768594 x[4,5]
   + 0.1387335552897825 x[6,1] + 0.197013285063193 x[6,2]
   + 0.1633965801467498 x[6,3] + 0.1980153214597408 x[6,4]
   + 0.2866793806768594 x[6,5] >= 0
 findWorstP[6,5]: z - 0.0161618773636746 cashProportion[5]
   + 0.0161618773636746 cashProportion[6] - 0.1387335552897825 x[5,1]
   - 0.197013285063193 x[5,2] - 0.1633965801467498 x[5,3]
   - 0.1980153214597408 x[5,4] - 0.2866793806768594 x[5,5]
   + 0.1387335552897825 x[6,1] + 0.197013285063193 x[6,2]
   + 0.1633965801467498 x[6,3] + 0.1980153214597408 x[6,4]
   + 0.2866793806768594 x[6,5] >= 0
Bounds
 z <= 1
 -infinity <= cashProportion[1] <= 1
 -infinity <= cashProportion[2] <= 1
 -infinity <= cashProportion[3] <= 1
 -infinity <= cashProportion[4] <= 1
 -infinity <= cashProportion[5] <= 1
 -infinity <= cashProportion[6] <= 1
Binaries
 x[1,1] x[1,2] x[1,3] x[1,4] x[1,5] x[2,1] x[2,2] x[2,3] x[2,4] x[2,5]
 x[3,1] x[3,2] x[3,3] x[3,4] x[3,5] x[4,1] x[4,2] x[4,3] x[4,4] x[4,5]
 x[5,1] x[5,2] x[5,3] x[5,4] x[5,5] x[6,1] x[6,2] x[6,3] x[6,4] x[6,5]
End
