data/mps_files/q3/105_0.mps
NAME foo
ROWS
 N  OBJ
 E  allocateEach[1]
 E  allocateEach[2]
 E  allocateEach[3]
 E  allocateEach[4]
 E  allocateEach[5]
 E  allocateAllCash
 G  findWorstP[1,2]
 G  findWorstP[1,3]
 G  findWorstP[1,4]
 G  findWorstP[1,5]
 G  findWorstP[1,6]
 G  findWorstP[2,1]
 G  findWorstP[2,3]
 G  findWorstP[2,4]
 G  findWorstP[2,5]
 G  findWorstP[2,6]
 G  findWorstP[3,1]
 G  findWorstP[3,2]
 G  findWorstP[3,4]
 G  findWorstP[3,5]
 G  findWorstP[3,6]
 G  findWorstP[4,1]
 G  findWorstP[4,2]
 G  findWorstP[4,3]
 G  findWorstP[4,5]
 G  findWorstP[4,6]
 G  findWorstP[5,1]
 G  findWorstP[5,2]
 G  findWorstP[5,3]
 G  findWorstP[5,4]
 G  findWorstP[5,6]
 G  findWorstP[6,1]
 G  findWorstP[6,2]
 G  findWorstP[6,3]
 G  findWorstP[6,4]
 G  findWorstP[6,5]
COLUMNS
    z         OBJ       1
    z         findWorstP[1,2]  1
    z         findWorstP[1,3]  1
    z         findWorstP[1,4]  1
    z         findWorstP[1,5]  1
    z         findWorstP[1,6]  1
    z         findWorstP[2,1]  1
    z         findWorstP[2,3]  1
    z         findWorstP[2,4]  1
    z         findWorstP[2,5]  1
    z         findWorstP[2,6]  1
    z         findWorstP[3,1]  1
    z         findWorstP[3,2]  1
    z         findWorstP[3,4]  1
    z         findWorstP[3,5]  1
    z         findWorstP[3,6]  1
    z         findWorstP[4,1]  1
    z         findWorstP[4,2]  1
    z         findWorstP[4,3]  1
    z         findWorstP[4,5]  1
    z         findWorstP[4,6]  1
    z         findWorstP[5,1]  1
    z         findWorstP[5,2]  1
    z         findWorstP[5,3]  1
    z         findWorstP[5,4]  1
    z         findWorstP[5,6]  1
    z         findWorstP[6,1]  1
    z         findWorstP[6,2]  1
    z         findWorstP[6,3]  1
    z         findWorstP[6,4]  1
    z         findWorstP[6,5]  1
    cashProportion[1]  allocateAllCash  1
    cashProportion[1]  findWorstP[1,2]  3.1456432840515886e-02
    cashProportion[1]  findWorstP[1,3]  3.1456432840515886e-02
    cashProportion[1]  findWorstP[1,4]  3.1456432840515886e-02
    cashProportion[1]  findWorstP[1,5]  3.1456432840515886e-02
    cashProportion[1]  findWorstP[1,6]  3.1456432840515886e-02
    cashProportion[1]  findWorstP[2,1]  -1.9981616912440558e-02
    cashProportion[1]  findWorstP[3,1]  -1.8828136767585480e-02
    cashProportion[1]  findWorstP[4,1]  -2.6442434819398172e-02
    cashProportion[1]  findWorstP[5,1]  -1.3585110718652357e-02
    cashProportion[1]  findWorstP[6,1]  -1.6161877363674564e-02
    cashProportion[2]  allocateAllCash  1
    cashProportion[2]  findWorstP[1,2]  -3.1456432840515886e-02
    cashProportion[2]  findWorstP[2,1]  1.9981616912440558e-02
    cashProportion[2]  findWorstP[2,3]  1.9981616912440558e-02
    cashProportion[2]  findWorstP[2,4]  1.9981616912440558e-02
    cashProportion[2]  findWorstP[2,5]  1.9981616912440558e-02
    cashProportion[2]  findWorstP[2,6]  1.9981616912440558e-02
    cashProportion[2]  findWorstP[3,2]  -1.8828136767585480e-02
    cashProportion[2]  findWorstP[4,2]  -2.6442434819398172e-02
    cashProportion[2]  findWorstP[5,2]  -1.3585110718652357e-02
    cashProportion[2]  findWorstP[6,2]  -1.6161877363674564e-02
    cashProportion[3]  allocateAllCash  1
    cashProportion[3]  findWorstP[1,3]  -3.1456432840515886e-02
    cashProportion[3]  findWorstP[2,3]  -1.9981616912440558e-02
    cashProportion[3]  findWorstP[3,1]  1.8828136767585480e-02
    cashProportion[3]  findWorstP[3,2]  1.8828136767585480e-02
    cashProportion[3]  findWorstP[3,4]  1.8828136767585480e-02
    cashProportion[3]  findWorstP[3,5]  1.8828136767585480e-02
    cashProportion[3]  findWorstP[3,6]  1.8828136767585480e-02
    cashProportion[3]  findWorstP[4,3]  -2.6442434819398172e-02
    cashProportion[3]  findWorstP[5,3]  -1.3585110718652357e-02
    cashProportion[3]  findWorstP[6,3]  -1.6161877363674564e-02
    cashProportion[4]  allocateAllCash  1
    cashProportion[4]  findWorstP[1,4]  -3.1456432840515886e-02
    cashProportion[4]  findWorstP[2,4]  -1.9981616912440558e-02
    cashProportion[4]  findWorstP[3,4]  -1.8828136767585480e-02
    cashProportion[4]  findWorstP[4,1]  2.6442434819398172e-02
    cashProportion[4]  findWorstP[4,2]  2.6442434819398172e-02
    cashProportion[4]  findWorstP[4,3]  2.6442434819398172e-02
    cashProportion[4]  findWorstP[4,5]  2.6442434819398172e-02
    cashProportion[4]  findWorstP[4,6]  2.6442434819398172e-02
    cashProportion[4]  findWorstP[5,4]  -1.3585110718652357e-02
    cashProportion[4]  findWorstP[6,4]  -1.6161877363674564e-02
    cashProportion[5]  allocateAllCash  1
    cashProportion[5]  findWorstP[1,5]  -3.1456432840515886e-02
    cashProportion[5]  findWorstP[2,5]  -1.9981616912440558e-02
    cashProportion[5]  findWorstP[3,5]  -1.8828136767585480e-02
    cashProportion[5]  findWorstP[4,5]  -2.6442434819398172e-02
    cashProportion[5]  findWorstP[5,1]  1.3585110718652357e-02
    cashProportion[5]  findWorstP[5,2]  1.3585110718652357e-02
    cashProportion[5]  findWorstP[5,3]  1.3585110718652357e-02
    cashProportion[5]  findWorstP[5,4]  1.3585110718652357e-02
    cashProportion[5]  findWorstP[5,6]  1.3585110718652357e-02
    cashProportion[5]  findWorstP[6,5]  -1.6161877363674564e-02
    cashProportion[6]  allocateAllCash  1
    cashProportion[6]  findWorstP[1,6]  -3.1456432840515886e-02
    cashProportion[6]  findWorstP[2,6]  -1.9981616912440558e-02
    cashProportion[6]  findWorstP[3,6]  -1.8828136767585480e-02
    cashProportion[6]  findWorstP[4,6]  -2.6442434819398172e-02
    cashProportion[6]  findWorstP[5,6]  -1.3585110718652357e-02
    cashProportion[6]  findWorstP[6,1]  1.6161877363674564e-02
    cashProportion[6]  findWorstP[6,2]  1.6161877363674564e-02
    cashProportion[6]  findWorstP[6,3]  1.6161877363674564e-02
    cashProportion[6]  findWorstP[6,4]  1.6161877363674564e-02
    cashProportion[6]  findWorstP[6,5]  1.6161877363674564e-02
    MARKER    'MARKER'                 'INTORG'
    x[1,1]    allocateEach[1]  1
    x[1,1]    findWorstP[1,2]  1.5665303554576911e-02
    x[1,1]    findWorstP[1,3]  1.5665303554576911e-02
    x[1,1]    findWorstP[1,4]  1.5665303554576911e-02
    x[1,1]    findWorstP[1,5]  1.5665303554576911e-02
    x[1,1]    findWorstP[1,6]  1.5665303554576911e-02
    x[1,1]    findWorstP[2,1]  -9.2994445110498342e-02
    x[1,1]    findWorstP[3,1]  -1.4384696490435306e-01
    x[1,1]    findWorstP[4,1]  -5.6904119731344863e-02
    x[1,1]    findWorstP[5,1]  -2.1948104877054747e-01
    x[1,1]    findWorstP[6,1]  -1.3873355528978248e-01
    x[1,2]    allocateEach[2]  1
    x[1,2]    findWorstP[1,2]  3.1204781377791757e-01
    x[1,2]    findWorstP[1,3]  3.1204781377791757e-01
    x[1,2]    findWorstP[1,4]  3.1204781377791757e-01
    x[1,2]    findWorstP[1,5]  3.1204781377791757e-01
    x[1,2]    findWorstP[1,6]  3.1204781377791757e-01
    x[1,2]    findWorstP[2,1]  -3.4136594333213444e-01
    x[1,2]    findWorstP[3,1]  -2.1780388612742885e-01
    x[1,2]    findWorstP[4,1]  -1.7251044476175365e-01
    x[1,2]    findWorstP[5,1]  -1.8945795408232580e-01
    x[1,2]    findWorstP[6,1]  -1.9701328506319296e-01
    x[1,3]    allocateEach[3]  1
    x[1,3]    findWorstP[1,2]  7.8074866310160432e-02
    x[1,3]    findWorstP[1,3]  7.8074866310160432e-02
    x[1,3]    findWorstP[1,4]  7.8074866310160432e-02
    x[1,3]    findWorstP[1,5]  7.8074866310160432e-02
    x[1,3]    findWorstP[1,6]  7.8074866310160432e-02
    x[1,3]    findWorstP[2,1]  -2.6895256364144988e-02
    x[1,3]    findWorstP[3,1]  -2.6653110408194003e-01
    x[1,3]    findWorstP[4,1]  -1.2501983182611454e-01
    x[1,3]    findWorstP[5,1]  -2.1464474935470726e-01
    x[1,3]    findWorstP[6,1]  -1.6339658014674985e-01
    x[1,4]    allocateEach[4]  1
    x[1,4]    findWorstP[1,2]  2.2503932054105066e-01
    x[1,4]    findWorstP[1,3]  2.2503932054105066e-01
    x[1,4]    findWorstP[1,4]  2.2503932054105066e-01
    x[1,4]    findWorstP[1,5]  2.2503932054105066e-01
    x[1,4]    findWorstP[1,6]  2.2503932054105066e-01
    x[1,4]    findWorstP[2,1]  -2.6743396075610443e-01
    x[1,4]    findWorstP[3,1]  -3.0866847416779636e-01
    x[1,4]    findWorstP[4,1]  -1.3760643080014806e-01
    x[1,4]    findWorstP[5,1]  -1.7163428881945389e-01
    x[1,4]    findWorstP[6,1]  -1.9801532145974077e-01
    x[1,5]    allocateEach[5]  1
    x[1,5]    findWorstP[1,2]  3.3771626297577856e-01
    x[1,5]    findWorstP[1,3]  3.3771626297577856e-01
    x[1,5]    findWorstP[1,4]  3.3771626297577856e-01
    x[1,5]    findWorstP[1,5]  3.3771626297577856e-01
    x[1,5]    findWorstP[1,6]  3.3771626297577856e-01
    x[1,5]    findWorstP[2,1]  -2.5132877752467730e-01
    x[1,5]    findWorstP[3,1]  -4.4321433950896216e-02
    x[1,5]    findWorstP[4,1]  -4.8151673806124068e-01
    x[1,5]    findWorstP[5,1]  -1.9119684825431327e-01
    x[1,5]    findWorstP[6,1]  -2.8667938067685944e-01
    x[2,1]    allocateEach[1]  1
    x[2,1]    findWorstP[1,2]  -1.5665303554576911e-02
    x[2,1]    findWorstP[2,1]  9.2994445110498342e-02
    x[2,1]    findWorstP[2,3]  9.2994445110498342e-02
    x[2,1]    findWorstP[2,4]  9.2994445110498342e-02
    x[2,1]    findWorstP[2,5]  9.2994445110498342e-02
    x[2,1]    findWorstP[2,6]  9.2994445110498342e-02
    x[2,1]    findWorstP[3,2]  -1.4384696490435306e-01
    x[2,1]    findWorstP[4,2]  -5.6904119731344863e-02
    x[2,1]    findWorstP[5,2]  -2.1948104877054747e-01
    x[2,1]    findWorstP[6,2]  -1.3873355528978248e-01
    x[2,2]    allocateEach[2]  1
    x[2,2]    findWorstP[1,2]  -3.1204781377791757e-01
    x[2,2]    findWorstP[2,1]  3.4136594333213444e-01
    x[2,2]    findWorstP[2,3]  3.4136594333213444e-01
    x[2,2]    findWorstP[2,4]  3.4136594333213444e-01
    x[2,2]    findWorstP[2,5]  3.4136594333213444e-01
    x[2,2]    findWorstP[2,6]  3.4136594333213444e-01
    x[2,2]    findWorstP[3,2]  -2.1780388612742885e-01
    x[2,2]    findWorstP[4,2]  -1.7251044476175365e-01
    x[2,2]    findWorstP[5,2]  -1.8945795408232580e-01
    x[2,2]    findWorstP[6,2]  -1.9701328506319296e-01
    x[2,3]    allocateEach[3]  1
    x[2,3]    findWorstP[1,2]  -7.8074866310160432e-02
    x[2,3]    findWorstP[2,1]  2.6895256364144988e-02
    x[2,3]    findWorstP[2,3]  2.6895256364144988e-02
    x[2,3]    findWorstP[2,4]  2.6895256364144988e-02
    x[2,3]    findWorstP[2,5]  2.6895256364144988e-02
    x[2,3]    findWorstP[2,6]  2.6895256364144988e-02
    x[2,3]    findWorstP[3,2]  -2.6653110408194003e-01
    x[2,3]    findWorstP[4,2]  -1.2501983182611454e-01
    x[2,3]    findWorstP[5,2]  -2.1464474935470726e-01
    x[2,3]    findWorstP[6,2]  -1.6339658014674985e-01
    x[2,4]    allocateEach[4]  1
    x[2,4]    findWorstP[1,2]  -2.2503932054105066e-01
    x[2,4]    findWorstP[2,1]  2.6743396075610443e-01
    x[2,4]    findWorstP[2,3]  2.6743396075610443e-01
    x[2,4]    findWorstP[2,4]  2.6743396075610443e-01
    x[2,4]    findWorstP[2,5]  2.6743396075610443e-01
    x[2,4]    findWorstP[2,6]  2.6743396075610443e-01
    x[2,4]    findWorstP[3,2]  -3.0866847416779636e-01
    x[2,4]    findWorstP[4,2]  -1.3760643080014806e-01
    x[2,4]    findWorstP[5,2]  -1.7163428881945389e-01
    x[2,4]    findWorstP[6,2]  -1.9801532145974077e-01
    x[2,5]    allocateEach[5]  1
    x[2,5]    findWorstP[1,2]  -3.3771626297577856e-01
    x[2,5]    findWorstP[2,1]  2.5132877752467730e-01
    x[2,5]    findWorstP[2,3]  2.5132877752467730e-01
    x[2,5]    findWorstP[2,4]  2.5132877752467730e-01
    x[2,5]    findWorstP[2,5]  2.5132877752467730e-01
    x[2,5]    findWorstP[2,6]  2.5132877752467730e-01
    x[2,5]    findWorstP[3,2]  -4.4321433950896216e-02
    x[2,5]    findWorstP[4,2]  -4.8151673806124068e-01
    x[2,5]    findWorstP[5,2]  -1.9119684825431327e-01
    x[2,5]    findWorstP[6,2]  -2.8667938067685944e-01
    x[3,1]    allocateEach[1]  1
    x[3,1]    findWorstP[1,3]  -1.5665303554576911e-02
    x[3,1]    findWorstP[2,3]  -9.2994445110498342e-02
    x[3,1]    findWorstP[3,1]  1.4384696490435306e-01
    x[3,1]    findWorstP[3,2]  1.4384696490435306e-01
    x[3,1]    findWorstP[3,4]  1.4384696490435306e-01
    x[3,1]    findWorstP[3,5]  1.4384696490435306e-01
    x[3,1]    findWorstP[3,6]  1.4384696490435306e-01
    x[3,1]    findWorstP[4,3]  -5.6904119731344863e-02
    x[3,1]    findWorstP[5,3]  -2.1948104877054747e-01
    x[3,1]    findWorstP[6,3]  -1.3873355528978248e-01
    x[3,2]    allocateEach[2]  1
    x[3,2]    findWorstP[1,3]  -3.1204781377791757e-01
    x[3,2]    findWorstP[2,3]  -3.4136594333213444e-01
    x[3,2]    findWorstP[3,1]  2.1780388612742885e-01
    x[3,2]    findWorstP[3,2]  2.1780388612742885e-01
    x[3,2]    findWorstP[3,4]  2.1780388612742885e-01
    x[3,2]    findWorstP[3,5]  2.1780388612742885e-01
    x[3,2]    findWorstP[3,6]  2.1780388612742885e-01
    x[3,2]    findWorstP[4,3]  -1.7251044476175365e-01
    x[3,2]    findWorstP[5,3]  -1.8945795408232580e-01
    x[3,2]    findWorstP[6,3]  -1.9701328506319296e-01
    x[3,3]    allocateEach[3]  1
    x[3,3]    findWorstP[1,3]  -7.8074866310160432e-02
    x[3,3]    findWorstP[2,3]  -2.6895256364144988e-02
    x[3,3]    findWorstP[3,1]  2.6653110408194003e-01
    x[3,3]    findWorstP[3,2]  2.6653110408194003e-01
    x[3,3]    findWorstP[3,4]  2.6653110408194003e-01
    x[3,3]    findWorstP[3,5]  2.6653110408194003e-01
    x[3,3]    findWorstP[3,6]  2.6653110408194003e-01
    x[3,3]    findWorstP[4,3]  -1.2501983182611454e-01
    x[3,3]    findWorstP[5,3]  -2.1464474935470726e-01
    x[3,3]    findWorstP[6,3]  -1.6339658014674985e-01
    x[3,4]    allocateEach[4]  1
    x[3,4]    findWorstP[1,3]  -2.2503932054105066e-01
    x[3,4]    findWorstP[2,3]  -2.6743396075610443e-01
    x[3,4]    findWorstP[3,1]  3.0866847416779636e-01
    x[3,4]    findWorstP[3,2]  3.0866847416779636e-01
    x[3,4]    findWorstP[3,4]  3.0866847416779636e-01
    x[3,4]    findWorstP[3,5]  3.0866847416779636e-01
    x[3,4]    findWorstP[3,6]  3.0866847416779636e-01
    x[3,4]    findWorstP[4,3]  -1.3760643080014806e-01
    x[3,4]    findWorstP[5,3]  -1.7163428881945389e-01
    x[3,4]    findWorstP[6,3]  -1.9801532145974077e-01
    x[3,5]    allocateEach[5]  1
    x[3,5]    findWorstP[1,3]  -3.3771626297577856e-01
    x[3,5]    findWorstP[2,3]  -2.5132877752467730e-01
    x[3,5]    findWorstP[3,1]  4.4321433950896216e-02
    x[3,5]    findWorstP[3,2]  4.4321433950896216e-02
    x[3,5]    findWorstP[3,4]  4.4321433950896216e-02
    x[3,5]    findWorstP[3,5]  4.4321433950896216e-02
    x[3,5]    findWorstP[3,6]  4.4321433950896216e-02
    x[3,5]    findWorstP[4,3]  -4.8151673806124068e-01
    x[3,5]    findWorstP[5,3]  -1.9119684825431327e-01
    x[3,5]    findWorstP[6,3]  -2.8667938067685944e-01
    x[4,1]    allocateEach[1]  1
    x[4,1]    findWorstP[1,4]  -1.5665303554576911e-02
    x[4,1]    findWorstP[2,4]  -9.2994445110498342e-02
    x[4,1]    findWorstP[3,4]  -1.4384696490435306e-01
    x[4,1]    findWorstP[4,1]  5.6904119731344863e-02
    x[4,1]    findWorstP[4,2]  5.6904119731344863e-02
    x[4,1]    findWorstP[4,3]  5.6904119731344863e-02
    x[4,1]    findWorstP[4,5]  5.6904119731344863e-02
    x[4,1]    findWorstP[4,6]  5.6904119731344863e-02
    x[4,1]    findWorstP[5,4]  -2.1948104877054747e-01
    x[4,1]    findWorstP[6,4]  -1.3873355528978248e-01
    x[4,2]    allocateEach[2]  1
    x[4,2]    findWorstP[1,4]  -3.1204781377791757e-01
    x[4,2]    findWorstP[2,4]  -3.4136594333213444e-01
    x[4,2]    findWorstP[3,4]  -2.1780388612742885e-01
    x[4,2]    findWorstP[4,1]  1.7251044476175365e-01
    x[4,2]    findWorstP[4,2]  1.7251044476175365e-01
    x[4,2]    findWorstP[4,3]  1.7251044476175365e-01
    x[4,2]    findWorstP[4,5]  1.7251044476175365e-01
    x[4,2]    findWorstP[4,6]  1.7251044476175365e-01
    x[4,2]    findWorstP[5,4]  -1.8945795408232580e-01
    x[4,2]    findWorstP[6,4]  -1.9701328506319296e-01
    x[4,3]    allocateEach[3]  1
    x[4,3]    findWorstP[1,4]  -7.8074866310160432e-02
    x[4,3]    findWorstP[2,4]  -2.6895256364144988e-02
    x[4,3]    findWorstP[3,4]  -2.6653110408194003e-01
    x[4,3]    findWorstP[4,1]  1.2501983182611454e-01
    x[4,3]    findWorstP[4,2]  1.2501983182611454e-01
    x[4,3]    findWorstP[4,3]  1.2501983182611454e-01
    x[4,3]    findWorstP[4,5]  1.2501983182611454e-01
    x[4,3]    findWorstP[4,6]  1.2501983182611454e-01
    x[4,3]    findWorstP[5,4]  -2.1464474935470726e-01
    x[4,3]    findWorstP[6,4]  -1.6339658014674985e-01
    x[4,4]    allocateEach[4]  1
    x[4,4]    findWorstP[1,4]  -2.2503932054105066e-01
    x[4,4]    findWorstP[2,4]  -2.6743396075610443e-01
    x[4,4]    findWorstP[3,4]  -3.0866847416779636e-01
    x[4,4]    findWorstP[4,1]  1.3760643080014806e-01
    x[4,4]    findWorstP[4,2]  1.3760643080014806e-01
    x[4,4]    findWorstP[4,3]  1.3760643080014806e-01
    x[4,4]    findWorstP[4,5]  1.3760643080014806e-01
    x[4,4]    findWorstP[4,6]  1.3760643080014806e-01
    x[4,4]    findWorstP[5,4]  -1.7163428881945389e-01
    x[4,4]    findWorstP[6,4]  -1.9801532145974077e-01
    x[4,5]    allocateEach[5]  1
    x[4,5]    findWorstP[1,4]  -3.3771626297577856e-01
    x[4,5]    findWorstP[2,4]  -2.5132877752467730e-01
    x[4,5]    findWorstP[3,4]  -4.4321433950896216e-02
    x[4,5]    findWorstP[4,1]  4.8151673806124068e-01
    x[4,5]    findWorstP[4,2]  4.8151673806124068e-01
    x[4,5]    findWorstP[4,3]  4.8151673806124068e-01
    x[4,5]    findWorstP[4,5]  4.8151673806124068e-01
    x[4,5]    findWorstP[4,6]  4.8151673806124068e-01
    x[4,5]    findWorstP[5,4]  -1.9119684825431327e-01
    x[4,5]    findWorstP[6,4]  -2.8667938067685944e-01
    x[5,1]    allocateEach[1]  1
    x[5,1]    findWorstP[1,5]  -1.5665303554576911e-02
    x[5,1]    findWorstP[2,5]  -9.2994445110498342e-02
    x[5,1]    findWorstP[3,5]  -1.4384696490435306e-01
    x[5,1]    findWorstP[4,5]  -5.6904119731344863e-02
    x[5,1]    findWorstP[5,1]  2.1948104877054747e-01
    x[5,1]    findWorstP[5,2]  2.1948104877054747e-01
    x[5,1]    findWorstP[5,3]  2.1948104877054747e-01
    x[5,1]    findWorstP[5,4]  2.1948104877054747e-01
    x[5,1]    findWorstP[5,6]  2.1948104877054747e-01
    x[5,1]    findWorstP[6,5]  -1.3873355528978248e-01
    x[5,2]    allocateEach[2]  1
    x[5,2]    findWorstP[1,5]  -3.1204781377791757e-01
    x[5,2]    findWorstP[2,5]  -3.4136594333213444e-01
    x[5,2]    findWorstP[3,5]  -2.1780388612742885e-01
    x[5,2]    findWorstP[4,5]  -1.7251044476175365e-01
    x[5,2]    findWorstP[5,1]  1.8945795408232580e-01
    x[5,2]    findWorstP[5,2]  1.8945795408232580e-01
    x[5,2]    findWorstP[5,3]  1.8945795408232580e-01
    x[5,2]    findWorstP[5,4]  1.8945795408232580e-01
    x[5,2]    findWorstP[5,6]  1.8945795408232580e-01
    x[5,2]    findWorstP[6,5]  -1.9701328506319296e-01
    x[5,3]    allocateEach[3]  1
    x[5,3]    findWorstP[1,5]  -7.8074866310160432e-02
    x[5,3]    findWorstP[2,5]  -2.6895256364144988e-02
    x[5,3]    findWorstP[3,5]  -2.6653110408194003e-01
    x[5,3]    findWorstP[4,5]  -1.2501983182611454e-01
    x[5,3]    findWorstP[5,1]  2.1464474935470726e-01
    x[5,3]    findWorstP[5,2]  2.1464474935470726e-01
    x[5,3]    findWorstP[5,3]  2.1464474935470726e-01
    x[5,3]    findWorstP[5,4]  2.1464474935470726e-01
    x[5,3]    findWorstP[5,6]  2.1464474935470726e-01
    x[5,3]    findWorstP[6,5]  -1.6339658014674985e-01
    x[5,4]    allocateEach[4]  1
    x[5,4]    findWorstP[1,5]  -2.2503932054105066e-01
    x[5,4]    findWorstP[2,5]  -2.6743396075610443e-01
    x[5,4]    findWorstP[3,5]  -3.0866847416779636e-01
    x[5,4]    findWorstP[4,5]  -1.3760643080014806e-01
    x[5,4]    findWorstP[5,1]  1.7163428881945389e-01
    x[5,4]    findWorstP[5,2]  1.7163428881945389e-01
    x[5,4]    findWorstP[5,3]  1.7163428881945389e-01
    x[5,4]    findWorstP[5,4]  1.7163428881945389e-01
    x[5,4]    findWorstP[5,6]  1.7163428881945389e-01
    x[5,4]    findWorstP[6,5]  -1.9801532145974077e-01
    x[5,5]    allocateEach[5]  1
    x[5,5]    findWorstP[1,5]  -3.3771626297577856e-01
    x[5,5]    findWorstP[2,5]  -2.5132877752467730e-01
    x[5,5]    findWorstP[3,5]  -4.4321433950896216e-02
    x[5,5]    findWorstP[4,5]  -4.8151673806124068e-01
    x[5,5]    findWorstP[5,1]  1.9119684825431327e-01
    x[5,5]    findWorstP[5,2]  1.9119684825431327e-01
    x[5,5]    findWorstP[5,3]  1.9119684825431327e-01
    x[5,5]    findWorstP[5,4]  1.9119684825431327e-01
    x[5,5]    findWorstP[5,6]  1.9119684825431327e-01
    x[5,5]    findWorstP[6,5]  -2.8667938067685944e-01
    x[6,1]    allocateEach[1]  1
    x[6,1]    findWorstP[1,6]  -1.5665303554576911e-02
    x[6,1]    findWorstP[2,6]  -9.2994445110498342e-02
    x[6,1]    findWorstP[3,6]  -1.4384696490435306e-01
    x[6,1]    findWorstP[4,6]  -5.6904119731344863e-02
    x[6,1]    findWorstP[5,6]  -2.1948104877054747e-01
    x[6,1]    findWorstP[6,1]  1.3873355528978248e-01
    x[6,1]    findWorstP[6,2]  1.3873355528978248e-01
    x[6,1]    findWorstP[6,3]  1.3873355528978248e-01
    x[6,1]    findWorstP[6,4]  1.3873355528978248e-01
    x[6,1]    findWorstP[6,5]  1.3873355528978248e-01
    x[6,2]    allocateEach[2]  1
    x[6,2]    findWorstP[1,6]  -3.1204781377791757e-01
    x[6,2]    findWorstP[2,6]  -3.4136594333213444e-01
    x[6,2]    findWorstP[3,6]  -2.1780388612742885e-01
    x[6,2]    findWorstP[4,6]  -1.7251044476175365e-01
    x[6,2]    findWorstP[5,6]  -1.8945795408232580e-01
    x[6,2]    findWorstP[6,1]  1.9701328506319296e-01
    x[6,2]    findWorstP[6,2]  1.9701328506319296e-01
    x[6,2]    findWorstP[6,3]  1.9701328506319296e-01
    x[6,2]    findWorstP[6,4]  1.9701328506319296e-01
    x[6,2]    findWorstP[6,5]  1.9701328506319296e-01
    x[6,3]    allocateEach[3]  1
    x[6,3]    findWorstP[1,6]  -7.8074866310160432e-02
    x[6,3]    findWorstP[2,6]  -2.6895256364144988e-02
    x[6,3]    findWorstP[3,6]  -2.6653110408194003e-01
    x[6,3]    findWorstP[4,6]  -1.2501983182611454e-01
    x[6,3]    findWorstP[5,6]  -2.1464474935470726e-01
    x[6,3]    findWorstP[6,1]  1.6339658014674985e-01
    x[6,3]    findWorstP[6,2]  1.6339658014674985e-01
    x[6,3]    findWorstP[6,3]  1.6339658014674985e-01
    x[6,3]    findWorstP[6,4]  1.6339658014674985e-01
    x[6,3]    findWorstP[6,5]  1.6339658014674985e-01
    x[6,4]    allocateEach[4]  1
    x[6,4]    findWorstP[1,6]  -2.2503932054105066e-01
    x[6,4]    findWorstP[2,6]  -2.6743396075610443e-01
    x[6,4]    findWorstP[3,6]  -3.0866847416779636e-01
    x[6,4]    findWorstP[4,6]  -1.3760643080014806e-01
    x[6,4]    findWorstP[5,6]  -1.7163428881945389e-01
    x[6,4]    findWorstP[6,1]  1.9801532145974077e-01
    x[6,4]    findWorstP[6,2]  1.9801532145974077e-01
    x[6,4]    findWorstP[6,3]  1.9801532145974077e-01
    x[6,4]    findWorstP[6,4]  1.9801532145974077e-01
    x[6,4]    findWorstP[6,5]  1.9801532145974077e-01
    x[6,5]    allocateEach[5]  1
    x[6,5]    findWorstP[1,6]  -3.3771626297577856e-01
    x[6,5]    findWorstP[2,6]  -2.5132877752467730e-01
    x[6,5]    findWorstP[3,6]  -4.4321433950896216e-02
    x[6,5]    findWorstP[4,6]  -4.8151673806124068e-01
    x[6,5]    findWorstP[5,6]  -1.9119684825431327e-01
    x[6,5]    findWorstP[6,1]  2.8667938067685944e-01
    x[6,5]    findWorstP[6,2]  2.8667938067685944e-01
    x[6,5]    findWorstP[6,3]  2.8667938067685944e-01
    x[6,5]    findWorstP[6,4]  2.8667938067685944e-01
    x[6,5]    findWorstP[6,5]  2.8667938067685944e-01
    MARKER    'MARKER'                 'INTEND'
RHS
    RHS1      allocateEach[1]  1
    RHS1      allocateEach[2]  1
    RHS1      allocateEach[3]  1
    RHS1      allocateEach[4]  1
    RHS1      allocateEach[5]  1
    RHS1      allocateAllCash  1
BOUNDS
 UP BND1      z         1
 MI BND1      cashProportion[1]
 UP BND1      cashProportion[1]  1
 MI BND1      cashProportion[2]
 UP BND1      cashProportion[2]  1
 MI BND1      cashProportion[3]
 UP BND1      cashProportion[3]  1
 MI BND1      cashProportion[4]
 UP BND1      cashProportion[4]  1
 MI BND1      cashProportion[5]
 UP BND1      cashProportion[5]  1
 MI BND1      cashProportion[6]
 UP BND1      cashProportion[6]  1
 BV BND1      x[1,1]  
 BV BND1      x[1,2]  
 BV BND1      x[1,3]  
 BV BND1      x[1,4]  
 BV BND1      x[1,5]  
 BV BND1      x[2,1]  
 BV BND1      x[2,2]  
 BV BND1      x[2,3]  
 BV BND1      x[2,4]  
 BV BND1      x[2,5]  
 BV BND1      x[3,1]  
 BV BND1      x[3,2]  
 BV BND1      x[3,3]  
 BV BND1      x[3,4]  
 BV BND1      x[3,5]  
 BV BND1      x[4,1]  
 BV BND1      x[4,2]  
 BV BND1      x[4,3]  
 BV BND1      x[4,4]  
 BV BND1      x[4,5]  
 BV BND1      x[5,1]  
 BV BND1      x[5,2]  
 BV BND1      x[5,3]  
 BV BND1      x[5,4]  
 BV BND1      x[5,5]  
 BV BND1      x[6,1]  
 BV BND1      x[6,2]  
 BV BND1      x[6,3]  
 BV BND1      x[6,4]  
 BV BND1      x[6,5]  
ENDATA
